p cnf 323 1756
-2 0
-3 0
-4 0
-5 0
1 0
36 6 0
-36 -6 0
1 6 11 16 21 26 31 0
1 36 71 106 141 176 211 0
6 41 76 111 146 181 216 0
11 46 81 116 151 186 221 0
16 51 86 121 156 191 226 0
253 254 0
-253 -254 0
-6 -7 0
-8 -9 0
-8 -10 0
-9 -10 0
-253 6 7 0
-254 7 8 9 10 0
253 -6 0
253 -7 0
254 -8 0
254 -9 0
254 -10 0
-6 1 11 0
-6 1 41 0
-6 11 41 0
-7 2 12 0
-7 2 42 0
-7 12 42 0
-8 3 13 0
-8 3 43 0
-8 13 43 0
-9 4 14 0
-9 4 44 0
-9 14 44 0
-10 5 15 0
-10 5 45 0
-10 15 45 0
-6 -1 -11 -41 0
-7 -2 -12 -42 0
-8 -3 -13 -43 0
-9 -4 -14 -44 0
-10 -5 -15 -45 0
-11 0
-13 0
-14 0
-15 0
12 0
7 17 47 0
-7 -17 0
-7 -47 0
-17 -47 0
2 7 12 17 22 27 32 0
37 42 47 52 57 62 67 0
72 77 82 87 92 97 102 0
7 42 77 112 147 182 217 0
12 47 82 117 152 187 222 0
-17 0
-18 0
-19 0
-20 0
16 0
11 21 51 0
-11 -21 0
-11 -51 0
-21 -51 0
259 260 0
-259 -260 0
-21 -22 0
-23 -24 0
-23 -25 0
-24 -25 0
-259 21 22 0
-260 22 23 24 25 0
259 -21 0
259 -22 0
260 -23 0
260 -24 0
260 -25 0
-21 16 26 0
-21 16 56 0
-21 26 56 0
-22 17 27 0
-22 17 57 0
-22 27 57 0
-23 18 28 0
-23 18 58 0
-23 28 58 0
-24 19 29 0
-24 19 59 0
-24 29 59 0
-25 20 30 0
-25 20 60 0
-25 30 60 0
-21 -16 -26 -56 0
-22 -17 -27 -57 0
-23 -18 -28 -58 0
-24 -19 -29 -59 0
-25 -20 -30 -60 0
261 262 0
-261 -262 0
-26 -27 0
-28 -29 0
-28 -30 0
-29 -30 0
-261 26 27 0
-262 27 28 29 30 0
261 -26 0
261 -27 0
262 -28 0
262 -29 0
262 -30 0
-26 21 31 0
-26 21 61 0
-26 31 61 0
-27 22 32 0
-27 22 62 0
-27 32 62 0
-28 23 33 0
-28 23 63 0
-28 33 63 0
-29 24 34 0
-29 24 64 0
-29 34 64 0
-30 25 35 0
-30 25 65 0
-30 35 65 0
-26 -21 -31 -61 0
-27 -22 -32 -62 0
-28 -23 -33 -63 0
-29 -24 -34 -64 0
-30 -25 -35 -65 0
263 264 0
-263 -264 0
-31 -32 0
-33 -34 0
-33 -35 0
-34 -35 0
-263 31 32 0
-264 32 33 34 35 0
263 -31 0
263 -32 0
264 -33 0
264 -34 0
264 -35 0
-31 66 0
-31 26 0
-32 67 0
-32 27 0
-33 68 0
-33 28 0
-34 69 0
-34 29 0
-35 70 0
-35 30 0
265 266 0
-265 -266 0
-36 -37 0
-38 -39 0
-38 -40 0
-39 -40 0
-265 36 37 0
-266 37 38 39 40 0
265 -36 0
265 -37 0
266 -38 0
266 -39 0
266 -40 0
-36 71 41 0
-36 71 1 0
-36 41 1 0
-37 72 42 0
-37 72 2 0
-37 42 2 0
-38 73 43 0
-38 73 3 0
-38 43 3 0
-39 74 44 0
-39 74 4 0
-39 44 4 0
-40 75 45 0
-40 75 5 0
-40 45 5 0
-36 -71 -41 -1 0
-37 -72 -42 -2 0
-38 -73 -43 -3 0
-39 -74 -44 -4 0
-40 -75 -45 -5 0
267 268 0
-267 -268 0
-41 -42 0
-43 -44 0
-43 -45 0
-44 -45 0
-267 41 42 0
-268 42 43 44 45 0
267 -41 0
267 -42 0
268 -43 0
268 -44 0
268 -45 0
-41 76 46 6 0
-41 76 46 36 0
-41 76 6 36 0
-41 46 6 36 0
-42 77 47 7 0
-42 77 47 37 0
-42 77 7 37 0
-42 47 7 37 0
-43 78 48 8 0
-43 78 48 38 0
-43 78 8 38 0
-43 48 8 38 0
-44 79 49 9 0
-44 79 49 39 0
-44 79 9 39 0
-44 49 9 39 0
-45 80 50 10 0
-45 80 50 40 0
-45 80 10 40 0
-45 50 10 40 0
-41 -76 -46 -6 0
-41 -76 -46 -36 0
-41 -76 -6 -36 0
-41 -46 -6 -36 0
-42 -77 -47 -7 0
-42 -77 -47 -37 0
-42 -77 -7 -37 0
-42 -47 -7 -37 0
-43 -78 -48 -8 0
-43 -78 -48 -38 0
-43 -78 -8 -38 0
-43 -48 -8 -38 0
-44 -79 -49 -9 0
-44 -79 -49 -39 0
-44 -79 -9 -39 0
-44 -49 -9 -39 0
-45 -80 -50 -10 0
-45 -80 -50 -40 0
-45 -80 -10 -40 0
-45 -50 -10 -40 0
-46 0
-47 0
-49 0
-50 0
48 0
83 53 13 43 0
-83 -53 0
-83 -13 0
-83 -43 0
-53 -13 0
-53 -43 0
-13 -43 0
38 43 48 53 58 63 68 0
73 78 83 88 93 98 103 0
108 113 118 123 128 133 138 0
8 43 78 113 148 183 218 0
13 48 83 118 153 188 223 0
271 272 0
-271 -272 0
-51 -52 0
-53 -54 0
-53 -55 0
-54 -55 0
-271 51 52 0
-272 52 53 54 55 0
271 -51 0
271 -52 0
272 -53 0
272 -54 0
272 -55 0
-51 86 56 16 0
-51 86 56 46 0
-51 86 16 46 0
-51 56 16 46 0
-52 87 57 17 0
-52 87 57 47 0
-52 87 17 47 0
-52 57 17 47 0
-53 88 58 18 0
-53 88 58 48 0
-53 88 18 48 0
-53 58 18 48 0
-54 89 59 19 0
-54 89 59 49 0
-54 89 19 49 0
-54 59 19 49 0
-55 90 60 20 0
-55 90 60 50 0
-55 90 20 50 0
-55 60 20 50 0
-51 -86 -56 -16 0
-51 -86 -56 -46 0
-51 -86 -16 -46 0
-51 -56 -16 -46 0
-52 -87 -57 -17 0
-52 -87 -57 -47 0
-52 -87 -17 -47 0
-52 -57 -17 -47 0
-53 -88 -58 -18 0
-53 -88 -58 -48 0
-53 -88 -18 -48 0
-53 -58 -18 -48 0
-54 -89 -59 -19 0
-54 -89 -59 -49 0
-54 -89 -19 -49 0
-54 -59 -19 -49 0
-55 -90 -60 -20 0
-55 -90 -60 -50 0
-55 -90 -20 -50 0
-55 -60 -20 -50 0
273 274 0
-273 -274 0
-56 -57 0
-58 -59 0
-58 -60 0
-59 -60 0
-273 56 57 0
-274 57 58 59 60 0
273 -56 0
273 -57 0
274 -58 0
274 -59 0
274 -60 0
-56 91 61 21 0
-56 91 61 51 0
-56 91 21 51 0
-56 61 21 51 0
-57 92 62 22 0
-57 92 62 52 0
-57 92 22 52 0
-57 62 22 52 0
-58 93 63 23 0
-58 93 63 53 0
-58 93 23 53 0
-58 63 23 53 0
-59 94 64 24 0
-59 94 64 54 0
-59 94 24 54 0
-59 64 24 54 0
-60 95 65 25 0
-60 95 65 55 0
-60 95 25 55 0
-60 65 25 55 0
-56 -91 -61 -21 0
-56 -91 -61 -51 0
-56 -91 -21 -51 0
-56 -61 -21 -51 0
-57 -92 -62 -22 0
-57 -92 -62 -52 0
-57 -92 -22 -52 0
-57 -62 -22 -52 0
-58 -93 -63 -23 0
-58 -93 -63 -53 0
-58 -93 -23 -53 0
-58 -63 -23 -53 0
-59 -94 -64 -24 0
-59 -94 -64 -54 0
-59 -94 -24 -54 0
-59 -64 -24 -54 0
-60 -95 -65 -25 0
-60 -95 -65 -55 0
-60 -95 -25 -55 0
-60 -65 -25 -55 0
275 276 0
-275 -276 0
-61 -62 0
-63 -64 0
-63 -65 0
-64 -65 0
-275 61 62 0
-276 62 63 64 65 0
275 -61 0
275 -62 0
276 -63 0
276 -64 0
276 -65 0
-61 96 66 26 0
-61 96 66 56 0
-61 96 26 56 0
-61 66 26 56 0
-62 97 67 27 0
-62 97 67 57 0
-62 97 27 57 0
-62 67 27 57 0
-63 98 68 28 0
-63 98 68 58 0
-63 98 28 58 0
-63 68 28 58 0
-64 99 69 29 0
-64 99 69 59 0
-64 99 29 59 0
-64 69 29 59 0
-65 100 70 30 0
-65 100 70 60 0
-65 100 30 60 0
-65 70 30 60 0
-61 -96 -66 -26 0
-61 -96 -66 -56 0
-61 -96 -26 -56 0
-61 -66 -26 -56 0
-62 -97 -67 -27 0
-62 -97 -67 -57 0
-62 -97 -27 -57 0
-62 -67 -27 -57 0
-63 -98 -68 -28 0
-63 -98 -68 -58 0
-63 -98 -28 -58 0
-63 -68 -28 -58 0
-64 -99 -69 -29 0
-64 -99 -69 -59 0
-64 -99 -29 -59 0
-64 -69 -29 -59 0
-65 -100 -70 -30 0
-65 -100 -70 -60 0
-65 -100 -30 -60 0
-65 -70 -30 -60 0
277 278 0
-277 -278 0
-66 -67 0
-68 -69 0
-68 -70 0
-69 -70 0
-277 66 67 0
-278 67 68 69 70 0
277 -66 0
277 -67 0
278 -68 0
278 -69 0
278 -70 0
-66 101 61 0
-66 101 31 0
-66 61 31 0
-67 102 62 0
-67 102 32 0
-67 62 32 0
-68 103 63 0
-68 103 33 0
-68 63 33 0
-69 104 64 0
-69 104 34 0
-69 64 34 0
-70 105 65 0
-70 105 35 0
-70 65 35 0
-66 -101 -61 -31 0
-67 -102 -62 -32 0
-68 -103 -63 -33 0
-69 -104 -64 -34 0
-70 -105 -65 -35 0
279 280 0
-279 -280 0
-71 -72 0
-73 -74 0
-73 -75 0
-74 -75 0
-279 71 72 0
-280 72 73 74 75 0
279 -71 0
279 -72 0
280 -73 0
280 -74 0
280 -75 0
-71 106 76 0
-71 106 36 0
-71 76 36 0
-72 107 77 0
-72 107 37 0
-72 77 37 0
-73 108 78 0
-73 108 38 0
-73 78 38 0
-74 109 79 0
-74 109 39 0
-74 79 39 0
-75 110 80 0
-75 110 40 0
-75 80 40 0
-71 -106 -76 -36 0
-72 -107 -77 -37 0
-73 -108 -78 -38 0
-74 -109 -79 -39 0
-75 -110 -80 -40 0
-76 0
-78 0
-79 0
-80 0
77 0
112 82 42 72 0
-112 -82 0
-112 -42 0
-112 -72 0
-82 -42 0
-82 -72 0
-42 -72 0
283 284 0
-283 -284 0
-81 -82 0
-83 -84 0
-83 -85 0
-84 -85 0
-283 81 82 0
-284 82 83 84 85 0
283 -81 0
283 -82 0
284 -83 0
284 -84 0
284 -85 0
-81 116 86 46 0
-81 116 86 76 0
-81 116 46 76 0
-81 86 46 76 0
-82 117 87 47 0
-82 117 87 77 0
-82 117 47 77 0
-82 87 47 77 0
-83 118 88 48 0
-83 118 88 78 0
-83 118 48 78 0
-83 88 48 78 0
-84 119 89 49 0
-84 119 89 79 0
-84 119 49 79 0
-84 89 49 79 0
-85 120 90 50 0
-85 120 90 80 0
-85 120 50 80 0
-85 90 50 80 0
-81 -116 -86 -46 0
-81 -116 -86 -76 0
-81 -116 -46 -76 0
-81 -86 -46 -76 0
-82 -117 -87 -47 0
-82 -117 -87 -77 0
-82 -117 -47 -77 0
-82 -87 -47 -77 0
-83 -118 -88 -48 0
-83 -118 -88 -78 0
-83 -118 -48 -78 0
-83 -88 -48 -78 0
-84 -119 -89 -49 0
-84 -119 -89 -79 0
-84 -119 -49 -79 0
-84 -89 -49 -79 0
-85 -120 -90 -50 0
-85 -120 -90 -80 0
-85 -120 -50 -80 0
-85 -90 -50 -80 0
285 286 0
-285 -286 0
-86 -87 0
-88 -89 0
-88 -90 0
-89 -90 0
-285 86 87 0
-286 87 88 89 90 0
285 -86 0
285 -87 0
286 -88 0
286 -89 0
286 -90 0
-86 121 91 51 0
-86 121 91 81 0
-86 121 51 81 0
-86 91 51 81 0
-87 122 92 52 0
-87 122 92 82 0
-87 122 52 82 0
-87 92 52 82 0
-88 123 93 53 0
-88 123 93 83 0
-88 123 53 83 0
-88 93 53 83 0
-89 124 94 54 0
-89 124 94 84 0
-89 124 54 84 0
-89 94 54 84 0
-90 125 95 55 0
-90 125 95 85 0
-90 125 55 85 0
-90 95 55 85 0
-86 -121 -91 -51 0
-86 -121 -91 -81 0
-86 -121 -51 -81 0
-86 -91 -51 -81 0
-87 -122 -92 -52 0
-87 -122 -92 -82 0
-87 -122 -52 -82 0
-87 -92 -52 -82 0
-88 -123 -93 -53 0
-88 -123 -93 -83 0
-88 -123 -53 -83 0
-88 -93 -53 -83 0
-89 -124 -94 -54 0
-89 -124 -94 -84 0
-89 -124 -54 -84 0
-89 -94 -54 -84 0
-90 -125 -95 -55 0
-90 -125 -95 -85 0
-90 -125 -55 -85 0
-90 -95 -55 -85 0
-91 0
-92 0
-93 0
-94 0
95 0
130 100 60 90 0
-130 -100 0
-130 -60 0
-130 -90 0
-100 -60 0
-100 -90 0
-60 -90 0
75 80 85 90 95 100 105 0
110 115 120 125 130 135 140 0
145 150 155 160 165 170 175 0
180 185 190 195 200 205 210 0
10 45 80 115 150 185 220 0
15 50 85 120 155 190 225 0
20 55 90 125 160 195 230 0
25 60 95 130 165 200 235 0
289 290 0
-289 -290 0
-96 -97 0
-98 -99 0
-98 -100 0
-99 -100 0
-289 96 97 0
-290 97 98 99 100 0
289 -96 0
289 -97 0
290 -98 0
290 -99 0
290 -100 0
-96 131 101 61 0
-96 131 101 91 0
-96 131 61 91 0
-96 101 61 91 0
-97 132 102 62 0
-97 132 102 92 0
-97 132 62 92 0
-97 102 62 92 0
-98 133 103 63 0
-98 133 103 93 0
-98 133 63 93 0
-98 103 63 93 0
-99 134 104 64 0
-99 134 104 94 0
-99 134 64 94 0
-99 104 64 94 0
-100 135 105 65 0
-100 135 105 95 0
-100 135 65 95 0
-100 105 65 95 0
-96 -131 -101 -61 0
-96 -131 -101 -91 0
-96 -131 -61 -91 0
-96 -101 -61 -91 0
-97 -132 -102 -62 0
-97 -132 -102 -92 0
-97 -132 -62 -92 0
-97 -102 -62 -92 0
-98 -133 -103 -63 0
-98 -133 -103 -93 0
-98 -133 -63 -93 0
-98 -103 -63 -93 0
-99 -134 -104 -64 0
-99 -134 -104 -94 0
-99 -134 -64 -94 0
-99 -104 -64 -94 0
-100 -135 -105 -65 0
-100 -135 -105 -95 0
-100 -135 -65 -95 0
-100 -105 -65 -95 0
291 292 0
-291 -292 0
-101 -102 0
-103 -104 0
-103 -105 0
-104 -105 0
-291 101 102 0
-292 102 103 104 105 0
291 -101 0
291 -102 0
292 -103 0
292 -104 0
292 -105 0
-101 136 96 0
-101 136 66 0
-101 96 66 0
-102 137 97 0
-102 137 67 0
-102 97 67 0
-103 138 98 0
-103 138 68 0
-103 98 68 0
-104 139 99 0
-104 139 69 0
-104 99 69 0
-105 140 100 0
-105 140 70 0
-105 100 70 0
-101 -136 -96 -66 0
-102 -137 -97 -67 0
-103 -138 -98 -68 0
-104 -139 -99 -69 0
-105 -140 -100 -70 0
293 294 0
-293 -294 0
-106 -107 0
-108 -109 0
-108 -110 0
-109 -110 0
-293 106 107 0
-294 107 108 109 110 0
293 -106 0
293 -107 0
294 -108 0
294 -109 0
294 -110 0
-106 141 111 0
-106 141 71 0
-106 111 71 0
-107 142 112 0
-107 142 72 0
-107 112 72 0
-108 143 113 0
-108 143 73 0
-108 113 73 0
-109 144 114 0
-109 144 74 0
-109 114 74 0
-110 145 115 0
-110 145 75 0
-110 115 75 0
-106 -141 -111 -71 0
-107 -142 -112 -72 0
-108 -143 -113 -73 0
-109 -144 -114 -74 0
-110 -145 -115 -75 0
-111 0
-112 0
-114 0
-115 0
113 0
148 118 78 108 0
-148 -118 0
-148 -78 0
-148 -108 0
-118 -78 0
-118 -108 0
-78 -108 0
297 298 0
-297 -298 0
-116 -117 0
-118 -119 0
-118 -120 0
-119 -120 0
-297 116 117 0
-298 117 118 119 120 0
297 -116 0
297 -117 0
298 -118 0
298 -119 0
298 -120 0
-116 151 121 81 0
-116 151 121 111 0
-116 151 81 111 0
-116 121 81 111 0
-117 152 122 82 0
-117 152 122 112 0
-117 152 82 112 0
-117 122 82 112 0
-118 153 123 83 0
-118 153 123 113 0
-118 153 83 113 0
-118 123 83 113 0
-119 154 124 84 0
-119 154 124 114 0
-119 154 84 114 0
-119 124 84 114 0
-120 155 125 85 0
-120 155 125 115 0
-120 155 85 115 0
-120 125 85 115 0
-116 -151 -121 -81 0
-116 -151 -121 -111 0
-116 -151 -81 -111 0
-116 -121 -81 -111 0
-117 -152 -122 -82 0
-117 -152 -122 -112 0
-117 -152 -82 -112 0
-117 -122 -82 -112 0
-118 -153 -123 -83 0
-118 -153 -123 -113 0
-118 -153 -83 -113 0
-118 -123 -83 -113 0
-119 -154 -124 -84 0
-119 -154 -124 -114 0
-119 -154 -84 -114 0
-119 -124 -84 -114 0
-120 -155 -125 -85 0
-120 -155 -125 -115 0
-120 -155 -85 -115 0
-120 -125 -85 -115 0
299 300 0
-299 -300 0
-121 -122 0
-123 -124 0
-123 -125 0
-124 -125 0
-299 121 122 0
-300 122 123 124 125 0
299 -121 0
299 -122 0
300 -123 0
300 -124 0
300 -125 0
-121 156 126 86 0
-121 156 126 116 0
-121 156 86 116 0
-121 126 86 116 0
-122 157 127 87 0
-122 157 127 117 0
-122 157 87 117 0
-122 127 87 117 0
-123 158 128 88 0
-123 158 128 118 0
-123 158 88 118 0
-123 128 88 118 0
-124 159 129 89 0
-124 159 129 119 0
-124 159 89 119 0
-124 129 89 119 0
-125 160 130 90 0
-125 160 130 120 0
-125 160 90 120 0
-125 130 90 120 0
-121 -156 -126 -86 0
-121 -156 -126 -116 0
-121 -156 -86 -116 0
-121 -126 -86 -116 0
-122 -157 -127 -87 0
-122 -157 -127 -117 0
-122 -157 -87 -117 0
-122 -127 -87 -117 0
-123 -158 -128 -88 0
-123 -158 -128 -118 0
-123 -158 -88 -118 0
-123 -128 -88 -118 0
-124 -159 -129 -89 0
-124 -159 -129 -119 0
-124 -159 -89 -119 0
-124 -129 -89 -119 0
-125 -160 -130 -90 0
-125 -160 -130 -120 0
-125 -160 -90 -120 0
-125 -130 -90 -120 0
301 302 0
-301 -302 0
-126 -127 0
-128 -129 0
-128 -130 0
-129 -130 0
-301 126 127 0
-302 127 128 129 130 0
301 -126 0
301 -127 0
302 -128 0
302 -129 0
302 -130 0
-126 161 131 91 0
-126 161 131 121 0
-126 161 91 121 0
-126 131 91 121 0
-127 162 132 92 0
-127 162 132 122 0
-127 162 92 122 0
-127 132 92 122 0
-128 163 133 93 0
-128 163 133 123 0
-128 163 93 123 0
-128 133 93 123 0
-129 164 134 94 0
-129 164 134 124 0
-129 164 94 124 0
-129 134 94 124 0
-130 165 135 95 0
-130 165 135 125 0
-130 165 95 125 0
-130 135 95 125 0
-126 -161 -131 -91 0
-126 -161 -131 -121 0
-126 -161 -91 -121 0
-126 -131 -91 -121 0
-127 -162 -132 -92 0
-127 -162 -132 -122 0
-127 -162 -92 -122 0
-127 -132 -92 -122 0
-128 -163 -133 -93 0
-128 -163 -133 -123 0
-128 -163 -93 -123 0
-128 -133 -93 -123 0
-129 -164 -134 -94 0
-129 -164 -134 -124 0
-129 -164 -94 -124 0
-129 -134 -94 -124 0
-130 -165 -135 -95 0
-130 -165 -135 -125 0
-130 -165 -95 -125 0
-130 -135 -95 -125 0
303 304 0
-303 -304 0
-131 -132 0
-133 -134 0
-133 -135 0
-134 -135 0
-303 131 132 0
-304 132 133 134 135 0
303 -131 0
303 -132 0
304 -133 0
304 -134 0
304 -135 0
-131 166 136 96 0
-131 166 136 126 0
-131 166 96 126 0
-131 136 96 126 0
-132 167 137 97 0
-132 167 137 127 0
-132 167 97 127 0
-132 137 97 127 0
-133 168 138 98 0
-133 168 138 128 0
-133 168 98 128 0
-133 138 98 128 0
-134 169 139 99 0
-134 169 139 129 0
-134 169 99 129 0
-134 139 99 129 0
-135 170 140 100 0
-135 170 140 130 0
-135 170 100 130 0
-135 140 100 130 0
-131 -166 -136 -96 0
-131 -166 -136 -126 0
-131 -166 -96 -126 0
-131 -136 -96 -126 0
-132 -167 -137 -97 0
-132 -167 -137 -127 0
-132 -167 -97 -127 0
-132 -137 -97 -127 0
-133 -168 -138 -98 0
-133 -168 -138 -128 0
-133 -168 -98 -128 0
-133 -138 -98 -128 0
-134 -169 -139 -99 0
-134 -169 -139 -129 0
-134 -169 -99 -129 0
-134 -139 -99 -129 0
-135 -170 -140 -100 0
-135 -170 -140 -130 0
-135 -170 -100 -130 0
-135 -140 -100 -130 0
305 306 0
-305 -306 0
-136 -137 0
-138 -139 0
-138 -140 0
-139 -140 0
-305 136 137 0
-306 137 138 139 140 0
305 -136 0
305 -137 0
306 -138 0
306 -139 0
306 -140 0
-136 171 131 0
-136 171 101 0
-136 131 101 0
-137 172 132 0
-137 172 102 0
-137 132 102 0
-138 173 133 0
-138 173 103 0
-138 133 103 0
-139 174 134 0
-139 174 104 0
-139 134 104 0
-140 175 135 0
-140 175 105 0
-140 135 105 0
-136 -171 -131 -101 0
-137 -172 -132 -102 0
-138 -173 -133 -103 0
-139 -174 -134 -104 0
-140 -175 -135 -105 0
307 308 0
-307 -308 0
-141 -142 0
-143 -144 0
-143 -145 0
-144 -145 0
-307 141 142 0
-308 142 143 144 145 0
307 -141 0
307 -142 0
308 -143 0
308 -144 0
308 -145 0
-141 176 146 0
-141 176 106 0
-141 146 106 0
-142 177 147 0
-142 177 107 0
-142 147 107 0
-143 178 148 0
-143 178 108 0
-143 148 108 0
-144 179 149 0
-144 179 109 0
-144 149 109 0
-145 180 150 0
-145 180 110 0
-145 150 110 0
-141 -176 -146 -106 0
-142 -177 -147 -107 0
-143 -178 -148 -108 0
-144 -179 -149 -109 0
-145 -180 -150 -110 0
-146 0
-147 0
-148 0
-150 0
149 0
184 154 114 144 0
-184 -154 0
-184 -114 0
-184 -144 0
-154 -114 0
-154 -144 0
-114 -144 0
144 149 154 159 164 169 174 0
179 184 189 194 199 204 209 0
9 44 79 114 149 184 219 0
14 49 84 119 154 189 224 0
19 54 89 124 159 194 229 0
24 59 94 129 164 199 234 0
29 64 99 134 169 204 239 0
311 312 0
-311 -312 0
-151 -152 0
-153 -154 0
-153 -155 0
-154 -155 0
-311 151 152 0
-312 152 153 154 155 0
311 -151 0
311 -152 0
312 -153 0
312 -154 0
312 -155 0
-151 186 156 116 0
-151 186 156 146 0
-151 186 116 146 0
-151 156 116 146 0
-152 187 157 117 0
-152 187 157 147 0
-152 187 117 147 0
-152 157 117 147 0
-153 188 158 118 0
-153 188 158 148 0
-153 188 118 148 0
-153 158 118 148 0
-154 189 159 119 0
-154 189 159 149 0
-154 189 119 149 0
-154 159 119 149 0
-155 190 160 120 0
-155 190 160 150 0
-155 190 120 150 0
-155 160 120 150 0
-151 -186 -156 -116 0
-151 -186 -156 -146 0
-151 -186 -116 -146 0
-151 -156 -116 -146 0
-152 -187 -157 -117 0
-152 -187 -157 -147 0
-152 -187 -117 -147 0
-152 -157 -117 -147 0
-153 -188 -158 -118 0
-153 -188 -158 -148 0
-153 -188 -118 -148 0
-153 -158 -118 -148 0
-154 -189 -159 -119 0
-154 -189 -159 -149 0
-154 -189 -119 -149 0
-154 -159 -119 -149 0
-155 -190 -160 -120 0
-155 -190 -160 -150 0
-155 -190 -120 -150 0
-155 -160 -120 -150 0
313 314 0
-313 -314 0
-156 -157 0
-158 -159 0
-158 -160 0
-159 -160 0
-313 156 157 0
-314 157 158 159 160 0
313 -156 0
313 -157 0
314 -158 0
314 -159 0
314 -160 0
-156 191 161 121 0
-156 191 161 151 0
-156 191 121 151 0
-156 161 121 151 0
-157 192 162 122 0
-157 192 162 152 0
-157 192 122 152 0
-157 162 122 152 0
-158 193 163 123 0
-158 193 163 153 0
-158 193 123 153 0
-158 163 123 153 0
-159 194 164 124 0
-159 194 164 154 0
-159 194 124 154 0
-159 164 124 154 0
-160 195 165 125 0
-160 195 165 155 0
-160 195 125 155 0
-160 165 125 155 0
-156 -191 -161 -121 0
-156 -191 -161 -151 0
-156 -191 -121 -151 0
-156 -161 -121 -151 0
-157 -192 -162 -122 0
-157 -192 -162 -152 0
-157 -192 -122 -152 0
-157 -162 -122 -152 0
-158 -193 -163 -123 0
-158 -193 -163 -153 0
-158 -193 -123 -153 0
-158 -163 -123 -153 0
-159 -194 -164 -124 0
-159 -194 -164 -154 0
-159 -194 -124 -154 0
-159 -164 -124 -154 0
-160 -195 -165 -125 0
-160 -195 -165 -155 0
-160 -195 -125 -155 0
-160 -165 -125 -155 0
315 316 0
-315 -316 0
-161 -162 0
-163 -164 0
-163 -165 0
-164 -165 0
-315 161 162 0
-316 162 163 164 165 0
315 -161 0
315 -162 0
316 -163 0
316 -164 0
316 -165 0
-161 196 166 126 0
-161 196 166 156 0
-161 196 126 156 0
-161 166 126 156 0
-162 197 167 127 0
-162 197 167 157 0
-162 197 127 157 0
-162 167 127 157 0
-163 198 168 128 0
-163 198 168 158 0
-163 198 128 158 0
-163 168 128 158 0
-164 199 169 129 0
-164 199 169 159 0
-164 199 129 159 0
-164 169 129 159 0
-165 200 170 130 0
-165 200 170 160 0
-165 200 130 160 0
-165 170 130 160 0
-161 -196 -166 -126 0
-161 -196 -166 -156 0
-161 -196 -126 -156 0
-161 -166 -126 -156 0
-162 -197 -167 -127 0
-162 -197 -167 -157 0
-162 -197 -127 -157 0
-162 -167 -127 -157 0
-163 -198 -168 -128 0
-163 -198 -168 -158 0
-163 -198 -128 -158 0
-163 -168 -128 -158 0
-164 -199 -169 -129 0
-164 -199 -169 -159 0
-164 -199 -129 -159 0
-164 -169 -129 -159 0
-165 -200 -170 -130 0
-165 -200 -170 -160 0
-165 -200 -130 -160 0
-165 -170 -130 -160 0
317 318 0
-317 -318 0
-166 -167 0
-168 -169 0
-168 -170 0
-169 -170 0
-317 166 167 0
-318 167 168 169 170 0
317 -166 0
317 -167 0
318 -168 0
318 -169 0
318 -170 0
-166 201 171 131 0
-166 201 171 161 0
-166 201 131 161 0
-166 171 131 161 0
-167 202 172 132 0
-167 202 172 162 0
-167 202 132 162 0
-167 172 132 162 0
-168 203 173 133 0
-168 203 173 163 0
-168 203 133 163 0
-168 173 133 163 0
-169 204 174 134 0
-169 204 174 164 0
-169 204 134 164 0
-169 174 134 164 0
-170 205 175 135 0
-170 205 175 165 0
-170 205 135 165 0
-170 175 135 165 0
-166 -201 -171 -131 0
-166 -201 -171 -161 0
-166 -201 -131 -161 0
-166 -171 -131 -161 0
-167 -202 -172 -132 0
-167 -202 -172 -162 0
-167 -202 -132 -162 0
-167 -172 -132 -162 0
-168 -203 -173 -133 0
-168 -203 -173 -163 0
-168 -203 -133 -163 0
-168 -173 -133 -163 0
-169 -204 -174 -134 0
-169 -204 -174 -164 0
-169 -204 -134 -164 0
-169 -174 -134 -164 0
-170 -205 -175 -135 0
-170 -205 -175 -165 0
-170 -205 -135 -165 0
-170 -175 -135 -165 0
319 320 0
-319 -320 0
-171 -172 0
-173 -174 0
-173 -175 0
-174 -175 0
-319 171 172 0
-320 172 173 174 175 0
319 -171 0
319 -172 0
320 -173 0
320 -174 0
320 -175 0
-171 206 166 0
-171 206 136 0
-171 166 136 0
-172 207 167 0
-172 207 137 0
-172 167 137 0
-173 208 168 0
-173 208 138 0
-173 168 138 0
-174 209 169 0
-174 209 139 0
-174 169 139 0
-175 210 170 0
-175 210 140 0
-175 170 140 0
-171 -206 -166 -136 0
-172 -207 -167 -137 0
-173 -208 -168 -138 0
-174 -209 -169 -139 0
-175 -210 -170 -140 0
321 322 0
-321 -322 0
-176 -177 0
-178 -179 0
-178 -180 0
-179 -180 0
-321 176 177 0
-322 177 178 179 180 0
321 -176 0
321 -177 0
322 -178 0
322 -179 0
322 -180 0
-176 211 181 0
-176 211 141 0
-176 181 141 0
-177 212 182 0
-177 212 142 0
-177 182 142 0
-178 213 183 0
-178 213 143 0
-178 183 143 0
-179 214 184 0
-179 214 144 0
-179 184 144 0
-180 215 185 0
-180 215 145 0
-180 185 145 0
-176 -211 -181 -141 0
-177 -212 -182 -142 0
-178 -213 -183 -143 0
-179 -214 -184 -144 0
-180 -215 -185 -145 0
-181 0
-182 0
-183 0
-184 0
185 0
220 190 150 180 0
-220 -190 0
-220 -150 0
-220 -180 0
-190 -150 0
-190 -180 0
-150 -180 0
325 326 0
-325 -326 0
-186 -187 0
-188 -189 0
-188 -190 0
-189 -190 0
-325 186 187 0
-326 187 188 189 190 0
325 -186 0
325 -187 0
326 -188 0
326 -189 0
326 -190 0
-186 221 191 151 0
-186 221 191 181 0
-186 221 151 181 0
-186 191 151 181 0
-187 222 192 152 0
-187 222 192 182 0
-187 222 152 182 0
-187 192 152 182 0
-188 223 193 153 0
-188 223 193 183 0
-188 223 153 183 0
-188 193 153 183 0
-189 224 194 154 0
-189 224 194 184 0
-189 224 154 184 0
-189 194 154 184 0
-190 225 195 155 0
-190 225 195 185 0
-190 225 155 185 0
-190 195 155 185 0
-186 -221 -191 -151 0
-186 -221 -191 -181 0
-186 -221 -151 -181 0
-186 -191 -151 -181 0
-187 -222 -192 -152 0
-187 -222 -192 -182 0
-187 -222 -152 -182 0
-187 -192 -152 -182 0
-188 -223 -193 -153 0
-188 -223 -193 -183 0
-188 -223 -153 -183 0
-188 -193 -153 -183 0
-189 -224 -194 -154 0
-189 -224 -194 -184 0
-189 -224 -154 -184 0
-189 -194 -154 -184 0
-190 -225 -195 -155 0
-190 -225 -195 -185 0
-190 -225 -155 -185 0
-190 -195 -155 -185 0
327 328 0
-327 -328 0
-191 -192 0
-193 -194 0
-193 -195 0
-194 -195 0
-327 191 192 0
-328 192 193 194 195 0
327 -191 0
327 -192 0
328 -193 0
328 -194 0
328 -195 0
-191 226 196 156 0
-191 226 196 186 0
-191 226 156 186 0
-191 196 156 186 0
-192 227 197 157 0
-192 227 197 187 0
-192 227 157 187 0
-192 197 157 187 0
-193 228 198 158 0
-193 228 198 188 0
-193 228 158 188 0
-193 198 158 188 0
-194 229 199 159 0
-194 229 199 189 0
-194 229 159 189 0
-194 199 159 189 0
-195 230 200 160 0
-195 230 200 190 0
-195 230 160 190 0
-195 200 160 190 0
-191 -226 -196 -156 0
-191 -226 -196 -186 0
-191 -226 -156 -186 0
-191 -196 -156 -186 0
-192 -227 -197 -157 0
-192 -227 -197 -187 0
-192 -227 -157 -187 0
-192 -197 -157 -187 0
-193 -228 -198 -158 0
-193 -228 -198 -188 0
-193 -228 -158 -188 0
-193 -198 -158 -188 0
-194 -229 -199 -159 0
-194 -229 -199 -189 0
-194 -229 -159 -189 0
-194 -199 -159 -189 0
-195 -230 -200 -160 0
-195 -230 -200 -190 0
-195 -230 -160 -190 0
-195 -200 -160 -190 0
329 330 0
-329 -330 0
-196 -197 0
-198 -199 0
-198 -200 0
-199 -200 0
-329 196 197 0
-330 197 198 199 200 0
329 -196 0
329 -197 0
330 -198 0
330 -199 0
330 -200 0
-196 231 201 161 0
-196 231 201 191 0
-196 231 161 191 0
-196 201 161 191 0
-197 232 202 162 0
-197 232 202 192 0
-197 232 162 192 0
-197 202 162 192 0
-198 233 203 163 0
-198 233 203 193 0
-198 233 163 193 0
-198 203 163 193 0
-199 234 204 164 0
-199 234 204 194 0
-199 234 164 194 0
-199 204 164 194 0
-200 235 205 165 0
-200 235 205 195 0
-200 235 165 195 0
-200 205 165 195 0
-196 -231 -201 -161 0
-196 -231 -201 -191 0
-196 -231 -161 -191 0
-196 -201 -161 -191 0
-197 -232 -202 -162 0
-197 -232 -202 -192 0
-197 -232 -162 -192 0
-197 -202 -162 -192 0
-198 -233 -203 -163 0
-198 -233 -203 -193 0
-198 -233 -163 -193 0
-198 -203 -163 -193 0
-199 -234 -204 -164 0
-199 -234 -204 -194 0
-199 -234 -164 -194 0
-199 -204 -164 -194 0
-200 -235 -205 -165 0
-200 -235 -205 -195 0
-200 -235 -165 -195 0
-200 -205 -165 -195 0
-201 0
-202 0
-203 0
-205 0
204 0
239 209 169 199 0
-239 -209 0
-239 -169 0
-239 -199 0
-209 -169 0
-209 -199 0
-169 -199 0
333 334 0
-333 -334 0
-206 -207 0
-208 -209 0
-208 -210 0
-209 -210 0
-333 206 207 0
-334 207 208 209 210 0
333 -206 0
333 -207 0
334 -208 0
334 -209 0
334 -210 0
-206 241 201 0
-206 241 171 0
-206 201 171 0
-207 242 202 0
-207 242 172 0
-207 202 172 0
-208 243 203 0
-208 243 173 0
-208 203 173 0
-209 244 204 0
-209 244 174 0
-209 204 174 0
-210 245 205 0
-210 245 175 0
-210 205 175 0
-206 -241 -201 -171 0
-207 -242 -202 -172 0
-208 -243 -203 -173 0
-209 -244 -204 -174 0
-210 -245 -205 -175 0
335 336 0
-335 -336 0
-211 -212 0
-213 -214 0
-213 -215 0
-214 -215 0
-335 211 212 0
-336 212 213 214 215 0
335 -211 0
335 -212 0
336 -213 0
336 -214 0
336 -215 0
-211 176 0
-211 216 0
-212 177 0
-212 217 0
-213 178 0
-213 218 0
-214 179 0
-214 219 0
-215 180 0
-215 220 0
337 338 0
-337 -338 0
-216 -217 0
-218 -219 0
-218 -220 0
-219 -220 0
-337 216 217 0
-338 217 218 219 220 0
337 -216 0
337 -217 0
338 -218 0
338 -219 0
338 -220 0
-216 181 221 0
-216 181 211 0
-216 221 211 0
-217 182 222 0
-217 182 212 0
-217 222 212 0
-218 183 223 0
-218 183 213 0
-218 223 213 0
-219 184 224 0
-219 184 214 0
-219 224 214 0
-220 185 225 0
-220 185 215 0
-220 225 215 0
-216 -181 -221 -211 0
-217 -182 -222 -212 0
-218 -183 -223 -213 0
-219 -184 -224 -214 0
-220 -185 -225 -215 0
339 340 0
-339 -340 0
-221 -222 0
-223 -224 0
-223 -225 0
-224 -225 0
-339 221 222 0
-340 222 223 224 225 0
339 -221 0
339 -222 0
340 -223 0
340 -224 0
340 -225 0
-221 186 226 0
-221 186 216 0
-221 226 216 0
-222 187 227 0
-222 187 217 0
-222 227 217 0
-223 188 228 0
-223 188 218 0
-223 228 218 0
-224 189 229 0
-224 189 219 0
-224 229 219 0
-225 190 230 0
-225 190 220 0
-225 230 220 0
-221 -186 -226 -216 0
-222 -187 -227 -217 0
-223 -188 -228 -218 0
-224 -189 -229 -219 0
-225 -190 -230 -220 0
341 342 0
-341 -342 0
-226 -227 0
-228 -229 0
-228 -230 0
-229 -230 0
-341 226 227 0
-342 227 228 229 230 0
341 -226 0
341 -227 0
342 -228 0
342 -229 0
342 -230 0
-226 191 231 0
-226 191 221 0
-226 231 221 0
-227 192 232 0
-227 192 222 0
-227 232 222 0
-228 193 233 0
-228 193 223 0
-228 233 223 0
-229 194 234 0
-229 194 224 0
-229 234 224 0
-230 195 235 0
-230 195 225 0
-230 235 225 0
-226 -191 -231 -221 0
-227 -192 -232 -222 0
-228 -193 -233 -223 0
-229 -194 -234 -224 0
-230 -195 -235 -225 0
343 344 0
-343 -344 0
-231 -232 0
-233 -234 0
-233 -235 0
-234 -235 0
-343 231 232 0
-344 232 233 234 235 0
343 -231 0
343 -232 0
344 -233 0
344 -234 0
344 -235 0
-231 196 236 0
-231 196 226 0
-231 236 226 0
-232 197 237 0
-232 197 227 0
-232 237 227 0
-233 198 238 0
-233 198 228 0
-233 238 228 0
-234 199 239 0
-234 199 229 0
-234 239 229 0
-235 200 240 0
-235 200 230 0
-235 240 230 0
-231 -196 -236 -226 0
-232 -197 -237 -227 0
-233 -198 -238 -228 0
-234 -199 -239 -229 0
-235 -200 -240 -230 0
345 346 0
-345 -346 0
-236 -237 0
-238 -239 0
-238 -240 0
-239 -240 0
-345 236 237 0
-346 237 238 239 240 0
345 -236 0
345 -237 0
346 -238 0
346 -239 0
346 -240 0
-236 201 241 0
-236 201 231 0
-236 241 231 0
-237 202 242 0
-237 202 232 0
-237 242 232 0
-238 203 243 0
-238 203 233 0
-238 243 233 0
-239 204 244 0
-239 204 234 0
-239 244 234 0
-240 205 245 0
-240 205 235 0
-240 245 235 0
-236 -201 -241 -231 0
-237 -202 -242 -232 0
-238 -203 -243 -233 0
-239 -204 -244 -234 0
-240 -205 -245 -235 0
347 348 0
-347 -348 0
-241 -242 0
-243 -244 0
-243 -245 0
-244 -245 0
-347 241 242 0
-348 242 243 244 245 0
347 -241 0
347 -242 0
348 -243 0
348 -244 0
348 -245 0
-241 206 0
-241 236 0
-242 207 0
-242 237 0
-243 208 0
-243 238 0
-244 209 0
-244 239 0
-245 210 0
-245 240 0